set VV := 0 1 2 3 4 5 6 7 8 9 10 11 12 13 14 15 16 17 18 19 ;
set VS := 0 1 2 3 4 5 6 7 8 9 10 11 12 13 14 15 16 17 18 19 20 21 22 23 24 25 26 27 28 29 30 31 32 33 34 35 36 37 38 39 40 41 42 43 44 ;
param cv := 
0 16
1 22
2 10
3 10
4 17
5 13
6 18
7 13
8 15
9 19
10 19
11 12
12 19
13 25
14 14
15 14
16 25
17 12
18 24
19 24
;
param cs := 
0 24
1 33
2 35
3 40
4 22
5 28
6 34
7 30
8 40
9 28
10 25
11 21
12 26
13 28
14 25
15 28
16 36
17 38
18 30
19 32
20 22
21 34
22 27
23 28
24 40
25 21
26 34
27 23
28 27
29 20
30 24
31 28
32 28
33 39
34 26
35 20
36 35
37 27
38 36
39 31
40 25
41 33
42 31
43 23
44 21
;
param bv:	 0 1 2 3 4 5 6 7 8 9 10 11 12 13 14 15 16 17 18 19 := 
		0 0 0 0 0 0 0 0 0 0 0 0 23 0 0 0 0 0 0 0 0 
		1 0 0 0 0 0 0 0 0 15 16 0 0 0 14 0 0 0 0 0 0 
		2 0 0 0 0 21 0 0 0 22 18 0 0 0 0 18 0 25 0 0 0 
		3 0 0 0 0 0 0 0 0 0 0 0 0 12 0 0 0 20 0 0 0 
		4 0 0 0 0 0 0 0 0 0 0 19 0 0 0 0 21 0 0 0 0 
		5 0 0 0 0 0 0 0 0 0 0 0 0 0 0 0 23 0 0 0 0 
		6 0 0 0 0 0 0 0 0 0 0 0 0 10 0 0 0 0 0 0 0 
		7 0 0 0 0 0 0 0 0 0 0 0 0 23 0 0 0 0 0 0 0 
		8 0 0 0 0 0 0 0 0 0 16 0 0 21 0 0 0 0 24 0 0 
		9 0 0 0 0 0 0 0 0 0 0 0 0 0 0 0 0 0 0 0 16 
		10 0 0 0 0 0 0 0 0 0 0 0 0 10 0 0 0 0 0 0 0 
		11 0 0 0 0 0 0 0 0 0 0 0 0 0 10 0 0 0 0 12 0 
		12 0 0 0 0 0 0 0 0 0 0 0 0 0 0 0 0 0 0 0 0 
		13 0 0 0 0 0 0 0 0 0 0 0 0 0 0 0 0 0 0 0 0 
		14 0 0 0 0 0 0 0 0 0 0 0 0 0 0 0 0 0 0 0 0 
		15 0 0 0 0 0 0 0 0 0 0 0 0 0 0 0 0 0 0 0 0 
		16 0 0 0 0 0 0 0 0 0 0 0 0 0 0 0 0 0 0 12 0 
		17 0 0 0 0 0 0 0 0 0 0 0 0 0 0 0 0 0 0 0 0 
		18 0 0 0 0 0 0 0 0 0 0 0 0 0 0 0 0 0 0 0 13 
		19 0 0 0 0 0 0 0 0 0 0 0 0 0 0 0 0 0 0 0 0 
;
param bs:	 0 1 2 3 4 5 6 7 8 9 10 11 12 13 14 15 16 17 18 19 20 21 22 23 24 25 26 27 28 29 30 31 32 33 34 35 36 37 38 39 40 41 42 43 44 := 
		0 0 0 0 0 0 0 0 0 0 0 0 0 0 0 0 25 0 37 0 0 0 0 0 21 0 0 0 0 0 0 0 0 0 0 33 0 0 0 0 0 0 0 0 34 0 
		1 0 0 26 0 0 24 0 31 0 27 29 28 0 0 0 0 0 0 0 0 0 0 0 23 0 35 36 0 0 0 0 0 0 0 0 0 0 0 0 0 0 0 0 0 0 
		2 0 26 0 0 0 0 0 27 0 0 0 0 0 0 0 0 0 0 0 0 0 0 0 0 0 0 23 0 0 0 0 0 0 0 0 32 0 0 20 0 0 0 0 23 0 
		3 0 0 0 0 0 28 0 0 0 0 28 0 0 0 0 0 0 0 39 0 0 0 24 0 0 0 0 0 37 0 0 0 0 34 0 0 35 0 20 0 0 0 0 0 0 
		4 0 0 0 0 0 0 0 0 0 0 0 0 0 0 0 0 0 0 0 0 0 0 0 37 29 0 0 0 0 0 0 0 0 0 22 0 21 0 0 0 0 0 0 36 0 
		5 0 24 0 28 0 0 21 0 0 28 0 25 33 0 23 0 0 0 0 0 25 30 0 0 0 0 0 0 0 0 22 0 0 0 0 0 0 0 0 0 0 0 0 0 0 
		6 0 0 0 0 0 21 0 0 0 0 0 0 0 0 0 22 35 31 0 0 0 0 0 0 0 0 38 0 0 0 0 0 0 36 0 0 0 37 0 0 0 0 0 0 28 
		7 0 31 27 0 0 0 0 0 0 23 0 35 0 0 0 0 0 0 0 27 0 0 0 0 0 0 0 0 0 0 0 0 0 0 0 0 0 0 0 0 0 0 0 22 0 
		8 0 0 0 0 0 0 0 0 0 0 0 0 0 0 37 0 0 0 0 0 0 0 0 0 26 30 0 0 0 0 23 0 29 0 0 0 28 0 0 0 0 0 0 21 0 
		9 0 27 0 0 0 28 0 23 0 0 0 32 0 0 0 0 0 30 0 0 0 0 0 0 0 0 0 0 0 0 26 0 0 0 0 0 0 0 35 0 0 0 0 21 0 
		10 0 29 0 28 0 0 0 0 0 0 0 0 0 0 0 0 40 0 0 38 25 0 0 0 0 0 0 0 0 0 0 0 0 0 0 0 0 0 0 0 0 0 0 0 0 
		11 0 28 0 0 0 25 0 35 0 32 0 0 0 37 0 0 0 0 0 0 0 0 0 21 0 0 0 0 0 0 0 0 0 0 0 0 0 0 0 0 0 0 0 36 0 
		12 0 0 0 0 0 33 0 0 0 0 0 0 0 0 0 0 0 0 0 0 0 0 0 0 0 0 0 0 32 0 0 0 0 0 0 0 23 0 0 0 0 0 35 0 32 
		13 0 0 0 0 0 0 0 0 0 0 0 37 0 0 0 0 0 0 0 0 0 0 0 0 0 0 0 0 0 0 0 0 0 0 0 0 0 0 0 0 0 0 0 0 0 
		14 0 0 0 0 0 23 0 0 37 0 0 0 0 0 0 34 30 0 0 0 0 0 0 0 0 0 0 0 0 0 0 0 0 0 0 0 0 0 0 0 0 0 0 0 39 
		15 25 0 0 0 0 0 22 0 0 0 0 0 0 0 34 0 0 0 23 0 0 0 0 0 0 0 0 0 0 0 0 0 0 0 0 0 23 0 20 0 0 0 0 0 0 
		16 0 0 0 0 0 0 35 0 0 0 40 0 0 0 30 0 0 39 0 0 0 0 0 0 0 0 0 0 0 0 0 0 0 0 0 0 0 0 0 36 0 0 0 0 0 
		17 37 0 0 0 0 0 31 0 0 30 0 0 0 0 0 0 39 0 0 0 0 0 36 0 0 0 0 0 0 0 21 0 0 0 0 0 0 0 0 0 0 0 0 26 26 
		18 0 0 0 39 0 0 0 0 0 0 0 0 0 0 0 23 0 0 0 0 0 0 0 0 0 0 0 0 0 36 0 32 0 0 0 0 0 0 0 0 0 0 0 0 0 
		19 0 0 0 0 0 0 0 27 0 0 38 0 0 0 0 0 0 0 0 0 0 0 0 0 0 0 0 0 0 0 0 0 0 30 0 0 22 0 0 0 0 34 0 0 0 
		20 0 0 0 0 0 25 0 0 0 0 25 0 0 0 0 0 0 0 0 0 0 0 0 0 0 0 0 38 0 29 26 0 0 0 0 0 0 0 0 0 0 0 0 25 0 
		21 0 0 0 0 0 30 0 0 0 0 0 0 0 0 0 0 0 0 0 0 0 0 0 33 0 0 0 0 27 0 0 0 0 0 0 0 0 0 0 0 0 0 0 37 35 
		22 0 0 0 24 0 0 0 0 0 0 0 0 0 0 0 0 0 36 0 0 0 0 0 0 0 24 0 0 0 22 0 0 0 0 0 0 0 0 0 0 35 29 0 0 36 
		23 21 23 0 0 37 0 0 0 0 0 0 21 0 0 0 0 0 0 0 0 0 33 0 0 0 29 0 0 0 0 0 0 0 0 0 0 0 0 0 0 0 0 0 33 0 
		24 0 0 0 0 29 0 0 0 26 0 0 0 0 0 0 0 0 0 0 0 0 0 0 0 0 34 0 0 0 0 22 0 0 0 0 0 0 0 0 0 0 0 0 25 0 
		25 0 35 0 0 0 0 0 0 30 0 0 0 0 0 0 0 0 0 0 0 0 0 24 29 34 0 0 0 0 0 33 0 0 31 0 0 28 0 0 0 0 0 0 0 0 
		26 0 36 23 0 0 0 38 0 0 0 0 0 0 0 0 0 0 0 0 0 0 0 0 0 0 0 0 0 0 0 0 0 0 0 0 0 0 0 0 0 0 0 0 0 0 
		27 0 0 0 0 0 0 0 0 0 0 0 0 0 0 0 0 0 0 0 0 38 0 0 0 0 0 0 0 0 36 0 0 0 0 0 0 0 0 0 20 0 0 0 0 0 
		28 0 0 0 37 0 0 0 0 0 0 0 0 32 0 0 0 0 0 0 0 0 27 0 0 0 0 0 0 0 0 0 0 0 0 0 0 0 0 0 0 0 0 0 0 0 
		29 0 0 0 0 0 0 0 0 0 0 0 0 0 0 0 0 0 0 36 0 29 0 22 0 0 0 0 36 0 0 0 0 0 0 0 0 0 20 0 39 0 0 0 0 0 
		30 0 0 0 0 0 22 0 0 23 26 0 0 0 0 0 0 0 21 0 0 26 0 0 0 22 33 0 0 0 0 0 0 0 0 0 21 38 0 0 0 0 29 0 0 0 
		31 0 0 0 0 0 0 0 0 0 0 0 0 0 0 0 0 0 0 32 0 0 0 0 0 0 0 0 0 0 0 0 0 0 0 0 0 0 0 0 0 0 0 0 0 0 
		32 0 0 0 0 0 0 0 0 29 0 0 0 0 0 0 0 0 0 0 0 0 0 0 0 0 0 0 0 0 0 0 0 0 0 36 0 0 0 35 0 0 0 0 38 32 
		33 0 0 0 34 0 0 36 0 0 0 0 0 0 0 0 0 0 0 0 30 0 0 0 0 0 31 0 0 0 0 0 0 0 0 0 0 0 26 0 0 0 0 0 37 31 
		34 33 0 0 0 22 0 0 0 0 0 0 0 0 0 0 0 0 0 0 0 0 0 0 0 0 0 0 0 0 0 0 0 36 0 0 0 0 0 0 0 0 0 0 0 0 
		35 0 0 32 0 0 0 0 0 0 0 0 0 0 0 0 0 0 0 0 0 0 0 0 0 0 0 0 0 0 0 21 0 0 0 0 0 0 0 0 0 0 0 0 39 0 
		36 0 0 0 35 21 0 0 0 28 0 0 0 23 0 0 23 0 0 0 22 0 0 0 0 0 28 0 0 0 0 38 0 0 0 0 0 0 20 20 0 0 0 0 23 0 
		37 0 0 0 0 0 0 37 0 0 0 0 0 0 0 0 0 0 0 0 0 0 0 0 0 0 0 0 0 0 20 0 0 0 26 0 0 20 0 0 0 0 0 0 0 0 
		38 0 0 20 20 0 0 0 0 0 35 0 0 0 0 0 20 0 0 0 0 0 0 0 0 0 0 0 0 0 0 0 0 35 0 0 0 20 0 0 0 0 0 0 0 0 
		39 0 0 0 0 0 0 0 0 0 0 0 0 0 0 0 0 36 0 0 0 0 0 0 0 0 0 0 20 0 39 0 0 0 0 0 0 0 0 0 0 0 0 0 0 0 
		40 0 0 0 0 0 0 0 0 0 0 0 0 0 0 0 0 0 0 0 0 0 0 35 0 0 0 0 0 0 0 0 0 0 0 0 0 0 0 0 0 0 0 0 0 36 
		41 0 0 0 0 0 0 0 0 0 0 0 0 0 0 0 0 0 0 0 34 0 0 29 0 0 0 0 0 0 0 29 0 0 0 0 0 0 0 0 0 0 0 0 0 0 
		42 0 0 0 0 0 0 0 0 0 0 0 0 35 0 0 0 0 0 0 0 0 0 0 0 0 0 0 0 0 0 0 0 0 0 0 0 0 0 0 0 0 0 0 0 0 
		43 34 0 23 0 36 0 0 22 21 21 0 36 0 0 0 0 0 26 0 0 25 37 0 33 25 0 0 0 0 0 0 0 38 37 0 39 23 0 0 0 0 0 0 0 0 
		44 0 0 0 0 0 0 28 0 0 0 0 0 32 0 39 0 0 26 0 0 0 35 36 0 0 0 0 0 0 0 0 0 32 31 0 0 0 0 0 0 36 0 0 0 0 
;
